



(declare-const TMP_BV_8 (_ BitVec 8))
(declare-const TMP_BV_16 (_ BitVec 16))
(declare-const TMP_BV_32 (_ BitVec 32))
(declare-const TMP_BV_64 (_ BitVec 64))
(declare-const TMP_BV_128 (_ BitVec 128))
(declare-const TMP_BV_256 (_ BitVec 256))
(declare-const TMP_BOOL Bool)
(declare-const rbx (_ BitVec 64))
(declare-const rax (_ BitVec 64))
(declare-const rcx (_ BitVec 64))
(declare-const rdx (_ BitVec 64))
(declare-const rsp (_ BitVec 64))
(declare-const rip (_ BitVec 64))
(declare-const ymm0 (_ BitVec 256))
(declare-const ymm1 (_ BitVec 256))
(declare-const ymm2 (_ BitVec 256))
(declare-const ymm3 (_ BitVec 256))
(declare-const ymm4 (_ BitVec 256))
(declare-const ymm5 (_ BitVec 256))
(declare-const ymm6 (_ BitVec 256))
(declare-const ymm7 (_ BitVec 256))
(declare-const ymm8 (_ BitVec 256))
(declare-const ymm9 (_ BitVec 256))
(declare-const ymm10 (_ BitVec 256))
(declare-const ymm11 (_ BitVec 256))
(declare-const ymm12 (_ BitVec 256))
(declare-const ymm13 (_ BitVec 256))
(declare-const ymm14 (_ BitVec 256))
(declare-const ymm15 (_ BitVec 256))
(declare-const zf Bool)
(declare-const sf Bool)
(declare-const cf Bool)
(declare-const pf Bool)
(declare-const af Bool)
(declare-const of Bool)

; Uninterpreted binary function declaration
(declare-fun comisd ((_ BitVec 64) (_ BitVec 64)) (_ BitVec 2))
(declare-fun comiss ((_ BitVec 32) (_ BitVec 32)) (_ BitVec 2))
(declare-fun    cvt_single_to_fp16_rm   ((_ BitVec 32) (_ BitVec 8)) (_ BitVec 16) )
(declare-fun    cvt_single_to_int32_rm  ((_ BitVec 32) (_ BitVec 8)) (_ BitVec 32) )
(declare-fun    cvt_double_to_int64_rm  ((_ BitVec 64) (_ BitVec 8)) (_ BitVec 64) )

(declare-fun add_double ((_ BitVec 64) (_ BitVec 64)) (_ BitVec 64))
(declare-fun add_single ((_ BitVec 32) (_ BitVec 32)) (_ BitVec 32))
(declare-fun sub_double ((_ BitVec 64) (_ BitVec 64)) (_ BitVec 64))
(declare-fun sub_single ((_ BitVec 32) (_ BitVec 32)) (_ BitVec 32))
(declare-fun div_double ((_ BitVec 64) (_ BitVec 64)) (_ BitVec 64))
(declare-fun div_single ((_ BitVec 32) (_ BitVec 32)) (_ BitVec 32))
(declare-fun mul_double ((_ BitVec 64) (_ BitVec 64)) (_ BitVec 64))
(declare-fun mul_single ((_ BitVec 32) (_ BitVec 32)) (_ BitVec 32))
(declare-fun maxcmp_double ((_ BitVec 64) (_ BitVec 64)) (_ BitVec 1))
(declare-fun maxcmp_single ((_ BitVec 32) (_ BitVec 32)) (_ BitVec 1))
(declare-fun mincmp_double ((_ BitVec 64) (_ BitVec 64)) (_ BitVec 1))
(declare-fun mincmp_single ((_ BitVec 32) (_ BitVec 32)) (_ BitVec 1))

(declare-fun idiv_quotient_int8   ((_ BitVec 16) (_ BitVec 8)) (_ BitVec 8))
(declare-fun idiv_remainder_int8  ((_ BitVec 16) (_ BitVec 8)) (_ BitVec 8))
(declare-fun idiv_quotient_int16  ((_ BitVec 32) (_ BitVec 16)) (_ BitVec 16))
(declare-fun idiv_remainder_int16 ((_ BitVec 32) (_ BitVec 16)) (_ BitVec 16))
(declare-fun idiv_quotient_int32  ((_ BitVec 64) (_ BitVec 32)) (_ BitVec 32))
(declare-fun idiv_remainder_int32 ((_ BitVec 64) (_ BitVec 32)) (_ BitVec 32))
(declare-fun idiv_quotient_int64  ((_ BitVec 128) (_ BitVec 64)) (_ BitVec 64))
(declare-fun idiv_remainder_int64 ((_ BitVec 128) (_ BitVec 64)) (_ BitVec 64))
(declare-fun div_quotient_int8   ((_ BitVec 16) (_ BitVec 8)) (_ BitVec 8))
(declare-fun div_remainder_int8  ((_ BitVec 16) (_ BitVec 8)) (_ BitVec 8))
(declare-fun div_quotient_int16  ((_ BitVec 32) (_ BitVec 16)) (_ BitVec 16))
(declare-fun div_remainder_int16 ((_ BitVec 32) (_ BitVec 16)) (_ BitVec 16))
(declare-fun div_quotient_int32  ((_ BitVec 64) (_ BitVec 32)) (_ BitVec 32))
(declare-fun div_remainder_int32 ((_ BitVec 64) (_ BitVec 32)) (_ BitVec 32))
(declare-fun div_quotient_int64  ((_ BitVec 128) (_ BitVec 64)) (_ BitVec 64))
(declare-fun div_remainder_int64 ((_ BitVec 128) (_ BitVec 64)) (_ BitVec 64))

; Uninterpreted unary function declaration
(declare-fun    cvt_half_to_single      ((_ BitVec 16)) (_ BitVec 32) )
(declare-fun    cvt_double_to_int64_truncate     ((_ BitVec 64)) (_ BitVec 64) )
(declare-fun    cvt_single_to_int64_truncate     ((_ BitVec 32)) (_ BitVec 64) )

(declare-fun approx_reciprocal_double       ((_ BitVec 64)) (_ BitVec 64) )
(declare-fun approx_reciprocal_single       ((_ BitVec 32)) (_ BitVec 32) )
(declare-fun sqrt_double                    ((_ BitVec 64)) (_ BitVec 64) )
(declare-fun sqrt_single                    ((_ BitVec 32)) (_ BitVec 32) )
(declare-fun approx_reciprocal_sqrt_double  ((_ BitVec 64)) (_ BitVec 64) )
(declare-fun approx_reciprocal_sqrt_single  ((_ BitVec 32)) (_ BitVec 32) )

(declare-fun cvt_single_to_double           ((_ BitVec 32)) (_ BitVec 64) )
(declare-fun cvt_double_to_single           ((_ BitVec 64)) (_ BitVec 32) )

(declare-fun cvt_single_to_int32            ((_ BitVec 32)) (_ BitVec 32) )
(declare-fun cvt_single_to_int32_truncate   ((_ BitVec 32)) (_ BitVec 32) )
(declare-fun cvt_single_to_int64            ((_ BitVec 32)) (_ BitVec 64) )
(declare-fun cvt_double_to_int32            ((_ BitVec 64)) (_ BitVec 32) )
(declare-fun cvt_double_to_int32_truncate   ((_ BitVec 64)) (_ BitVec 32) )
(declare-fun cvt_double_to_int64            ((_ BitVec 64)) (_ BitVec 64) )

(declare-fun cvt_int32_to_single            ((_ BitVec 32)) (_ BitVec 32) )
(declare-fun cvt_int32_to_double            ((_ BitVec 32)) (_ BitVec 64) )
(declare-fun cvt_int64_to_single            ((_ BitVec 64)) (_ BitVec 32) )
(declare-fun cvt_int64_to_double            ((_ BitVec 64)) (_ BitVec 64) )

; Uninterpreted ternary function declaration
(declare-fun cmp_double_pred ((_ BitVec 64) (_ BitVec 64) (_ BitVec 8)) (_ BitVec 1))
(declare-fun cmp_single_pred ((_ BitVec 32) (_ BitVec 32) (_ BitVec 8)) (_ BitVec 1))

(declare-fun vfmadd132_double ((_ BitVec 64) (_ BitVec 64) (_ BitVec 64)) (_ BitVec 64))
(declare-fun vfmadd132_single ((_ BitVec 32) (_ BitVec 32) (_ BitVec 32)) (_ BitVec 32))
(declare-fun vfmadd231_double ((_ BitVec 64) (_ BitVec 64) (_ BitVec 64)) (_ BitVec 64))
(declare-fun vfmadd231_single ((_ BitVec 32) (_ BitVec 32) (_ BitVec 32)) (_ BitVec 32))
(declare-fun vfmadd213_double ((_ BitVec 64) (_ BitVec 64) (_ BitVec 64)) (_ BitVec 64))
(declare-fun vfmadd213_single ((_ BitVec 32) (_ BitVec 32) (_ BitVec 32)) (_ BitVec 32))
(declare-fun vfmsub132_double ((_ BitVec 64) (_ BitVec 64) (_ BitVec 64)) (_ BitVec 64))
(declare-fun vfmsub132_single ((_ BitVec 32) (_ BitVec 32) (_ BitVec 32)) (_ BitVec 32))
(declare-fun vfmsub231_double ((_ BitVec 64) (_ BitVec 64) (_ BitVec 64)) (_ BitVec 64))
(declare-fun vfmsub231_single ((_ BitVec 32) (_ BitVec 32) (_ BitVec 32)) (_ BitVec 32))
(declare-fun vfmsub213_double ((_ BitVec 64) (_ BitVec 64) (_ BitVec 64)) (_ BitVec 64))
(declare-fun vfmsub213_single ((_ BitVec 32) (_ BitVec 32) (_ BitVec 32)) (_ BitVec 32))
(declare-fun vfnmadd132_double ((_ BitVec 64) (_ BitVec 64) (_ BitVec 64)) (_ BitVec 64))
(declare-fun vfnmadd132_single ((_ BitVec 32) (_ BitVec 32) (_ BitVec 32)) (_ BitVec 32))
(declare-fun vfnmsub132_double ((_ BitVec 64) (_ BitVec 64) (_ BitVec 64)) (_ BitVec 64))
(declare-fun vfnmsub132_single ((_ BitVec 32) (_ BitVec 32) (_ BitVec 32)) (_ BitVec 32))


( push )
( echo "bzhil_r32_r32_r32::af")
(assert (not (=
TMP_BOOL

TMP_BOOL
)))
(check-sat)
( pop )



( push )
( echo "bzhil_r32_r32_r32::cf")
(assert (not (=
(bvuge ((_ extract 7 0) rdx) #x20)

(bvuge ((_ extract 7 0) rdx) #x20)
)))
(check-sat)
( pop )



( push )
( echo "bzhil_r32_r32_r32::of")
(assert (not (=
false

false
)))
(check-sat)
( pop )



( push )
( echo "bzhil_r32_r32_r32::pf")
(assert (not (=
TMP_BOOL

TMP_BOOL
)))
(check-sat)
( pop )



( push )
( echo "bzhil_r32_r32_r32::rbx")
(assert (not (=
(let ((a!1 (ite (= ((_ extract 7 0) rdx) #x02)
(concat #b000000000000000000000000000000 ((_ extract 1 0) rcx))
(ite (= ((_ extract 7 0) rdx) #x01)
(concat #b0000000000000000000000000000000
((_ extract 0 0) rcx))
#x00000000))))
(let ((a!2 (ite (= ((_ extract 7 0) rdx) #x04)
(concat #x0000000 ((_ extract 3 0) rcx))
(ite (= ((_ extract 7 0) rdx) #x03)
(concat #b00000000000000000000000000000
((_ extract 2 0) rcx))
a!1))))
(let ((a!3 (ite (= ((_ extract 7 0) rdx) #x06)
(concat #b00000000000000000000000000 ((_ extract 5 0) rcx))
(ite (= ((_ extract 7 0) rdx) #x05)
(concat #b000000000000000000000000000
((_ extract 4 0) rcx))
a!2))))
(let ((a!4 (ite (= ((_ extract 7 0) rdx) #x08)
(concat #x000000 ((_ extract 7 0) rcx))
(ite (= ((_ extract 7 0) rdx) #x07)
(concat #b0000000000000000000000000 ((_ extract 6 0) rcx))
a!3))))
(let ((a!5 (ite (= ((_ extract 7 0) rdx) #x0a)
(concat #b0000000000000000000000 ((_ extract 9 0) rcx))
(ite (= ((_ extract 7 0) rdx) #x09)
(concat #b00000000000000000000000 ((_ extract 8 0) rcx))
a!4))))
(let ((a!6 (ite (= ((_ extract 7 0) rdx) #x0c)
(concat #x00000 ((_ extract 11 0) rcx))
(ite (= ((_ extract 7 0) rdx) #x0b)
(concat #b000000000000000000000 ((_ extract 10 0) rcx))
a!5))))
(let ((a!7 (ite (= ((_ extract 7 0) rdx) #x0e)
(concat #b000000000000000000 ((_ extract 13 0) rcx))
(ite (= ((_ extract 7 0) rdx) #x0d)
(concat #b0000000000000000000 ((_ extract 12 0) rcx))
a!6))))
(let ((a!8 (ite (= ((_ extract 7 0) rdx) #x10)
(concat #x0000 ((_ extract 15 0) rcx))
(ite (= ((_ extract 7 0) rdx) #x0f)
(concat #b00000000000000000 ((_ extract 14 0) rcx))
a!7))))
(let ((a!9 (ite (= ((_ extract 7 0) rdx) #x12)
(concat #b00000000000000 ((_ extract 17 0) rcx))
(ite (= ((_ extract 7 0) rdx) #x11)
(concat #b000000000000000 ((_ extract 16 0) rcx))
a!8))))
(let ((a!10 (ite (= ((_ extract 7 0) rdx) #x14)
(concat #x000 ((_ extract 19 0) rcx))
(ite (= ((_ extract 7 0) rdx) #x13)
(concat #b0000000000000 ((_ extract 18 0) rcx))
a!9))))
(let ((a!11 (ite (= ((_ extract 7 0) rdx) #x16)
(concat #b0000000000 ((_ extract 21 0) rcx))
(ite (= ((_ extract 7 0) rdx) #x15)
(concat #b00000000000 ((_ extract 20 0) rcx))
a!10))))
(let ((a!12 (ite (= ((_ extract 7 0) rdx) #x18)
(concat #x00 ((_ extract 23 0) rcx))
(ite (= ((_ extract 7 0) rdx) #x17)
(concat #b000000000 ((_ extract 22 0) rcx))
a!11))))
(let ((a!13 (ite (= ((_ extract 7 0) rdx) #x1a)
(concat #b000000 ((_ extract 25 0) rcx))
(ite (= ((_ extract 7 0) rdx) #x19)
(concat #b0000000 ((_ extract 24 0) rcx))
a!12))))
(let ((a!14 (ite (= ((_ extract 7 0) rdx) #x1c)
(concat #x0 ((_ extract 27 0) rcx))
(ite (= ((_ extract 7 0) rdx) #x1b)
(concat #b00000 ((_ extract 26 0) rcx))
a!13))))
(let ((a!15 (ite (= ((_ extract 7 0) rdx) #x1e)
(concat #b00 ((_ extract 29 0) rcx))
(ite (= ((_ extract 7 0) rdx) #x1d)
(concat #b000 ((_ extract 28 0) rcx))
a!14))))
(let ((a!16 (ite (bvult ((_ extract 7 0) rdx) #x20)
(ite (= ((_ extract 7 0) rdx) #x1f)
(concat #b0 ((_ extract 30 0) rcx))
a!15)
((_ extract 31 0) rcx))))
(concat #x00000000 a!16)))))))))))))))))

(let ((a!1 (ite (= ((_ extract 7 0) rdx) #x02)
(concat #b000000000000000000000000000000 ((_ extract 1 0) rcx))
(ite (= ((_ extract 7 0) rdx) #x01)
(concat #b0000000000000000000000000000000
((_ extract 0 0) rcx))
#x00000000))))
(let ((a!2 (ite (= ((_ extract 7 0) rdx) #x04)
(concat #x0000000 ((_ extract 3 0) rcx))
(ite (= ((_ extract 7 0) rdx) #x03)
(concat #b00000000000000000000000000000
((_ extract 2 0) rcx))
a!1))))
(let ((a!3 (ite (= ((_ extract 7 0) rdx) #x06)
(concat #b00000000000000000000000000 ((_ extract 5 0) rcx))
(ite (= ((_ extract 7 0) rdx) #x05)
(concat #b000000000000000000000000000
((_ extract 4 0) rcx))
a!2))))
(let ((a!4 (ite (= ((_ extract 7 0) rdx) #x08)
(concat #x000000 ((_ extract 7 0) rcx))
(ite (= ((_ extract 7 0) rdx) #x07)
(concat #b0000000000000000000000000 ((_ extract 6 0) rcx))
a!3))))
(let ((a!5 (ite (= ((_ extract 7 0) rdx) #x0a)
(concat #b0000000000000000000000 ((_ extract 9 0) rcx))
(ite (= ((_ extract 7 0) rdx) #x09)
(concat #b00000000000000000000000 ((_ extract 8 0) rcx))
a!4))))
(let ((a!6 (ite (= ((_ extract 7 0) rdx) #x0c)
(concat #x00000 ((_ extract 11 0) rcx))
(ite (= ((_ extract 7 0) rdx) #x0b)
(concat #b000000000000000000000 ((_ extract 10 0) rcx))
a!5))))
(let ((a!7 (ite (= ((_ extract 7 0) rdx) #x0e)
(concat #b000000000000000000 ((_ extract 13 0) rcx))
(ite (= ((_ extract 7 0) rdx) #x0d)
(concat #b0000000000000000000 ((_ extract 12 0) rcx))
a!6))))
(let ((a!8 (ite (= ((_ extract 7 0) rdx) #x10)
(concat #x0000 ((_ extract 15 0) rcx))
(ite (= ((_ extract 7 0) rdx) #x0f)
(concat #b00000000000000000 ((_ extract 14 0) rcx))
a!7))))
(let ((a!9 (ite (= ((_ extract 7 0) rdx) #x12)
(concat #b00000000000000 ((_ extract 17 0) rcx))
(ite (= ((_ extract 7 0) rdx) #x11)
(concat #b000000000000000 ((_ extract 16 0) rcx))
a!8))))
(let ((a!10 (ite (= ((_ extract 7 0) rdx) #x14)
(concat #x000 ((_ extract 19 0) rcx))
(ite (= ((_ extract 7 0) rdx) #x13)
(concat #b0000000000000 ((_ extract 18 0) rcx))
a!9))))
(let ((a!11 (ite (= ((_ extract 7 0) rdx) #x16)
(concat #b0000000000 ((_ extract 21 0) rcx))
(ite (= ((_ extract 7 0) rdx) #x15)
(concat #b00000000000 ((_ extract 20 0) rcx))
a!10))))
(let ((a!12 (ite (= ((_ extract 7 0) rdx) #x18)
(concat #x00 ((_ extract 23 0) rcx))
(ite (= ((_ extract 7 0) rdx) #x17)
(concat #b000000000 ((_ extract 22 0) rcx))
a!11))))
(let ((a!13 (ite (= ((_ extract 7 0) rdx) #x1a)
(concat #b000000 ((_ extract 25 0) rcx))
(ite (= ((_ extract 7 0) rdx) #x19)
(concat #b0000000 ((_ extract 24 0) rcx))
a!12))))
(let ((a!14 (ite (= ((_ extract 7 0) rdx) #x1c)
(concat #x0 ((_ extract 27 0) rcx))
(ite (= ((_ extract 7 0) rdx) #x1b)
(concat #b00000 ((_ extract 26 0) rcx))
a!13))))
(let ((a!15 (ite (= ((_ extract 7 0) rdx) #x1e)
(concat #b00 ((_ extract 29 0) rcx))
(ite (= ((_ extract 7 0) rdx) #x1d)
(concat #b000 ((_ extract 28 0) rcx))
a!14))))
(let ((a!16 (ite (bvult ((_ extract 7 0) rdx) #x20)
(ite (= ((_ extract 7 0) rdx) #x1f)
(concat #b0 ((_ extract 30 0) rcx))
a!15)
((_ extract 31 0) rcx))))
(concat #x00000000 a!16)))))))))))))))))
)))
(check-sat)
( pop )



( push )
( echo "bzhil_r32_r32_r32::sf")
(assert (not (=
(= (ite (bvult ((_ extract 7 0) rdx) #x20) #b0 ((_ extract 31 31) rcx)) #b1)

(= (ite (bvult ((_ extract 7 0) rdx) #x20) #b0 ((_ extract 31 31) rcx)) #b1)
)))
(check-sat)
( pop )



( push )
( echo "bzhil_r32_r32_r32::zf")
(assert (not (=
(let ((a!1 (ite (= ((_ extract 7 0) rdx) #x02)
(concat #b000000000000000000000000000000 ((_ extract 1 0) rcx))
(ite (= ((_ extract 7 0) rdx) #x01)
(concat #b0000000000000000000000000000000
((_ extract 0 0) rcx))
#x00000000))))
(let ((a!2 (ite (= ((_ extract 7 0) rdx) #x04)
(concat #x0000000 ((_ extract 3 0) rcx))
(ite (= ((_ extract 7 0) rdx) #x03)
(concat #b00000000000000000000000000000
((_ extract 2 0) rcx))
a!1))))
(let ((a!3 (ite (= ((_ extract 7 0) rdx) #x06)
(concat #b00000000000000000000000000 ((_ extract 5 0) rcx))
(ite (= ((_ extract 7 0) rdx) #x05)
(concat #b000000000000000000000000000
((_ extract 4 0) rcx))
a!2))))
(let ((a!4 (ite (= ((_ extract 7 0) rdx) #x08)
(concat #x000000 ((_ extract 7 0) rcx))
(ite (= ((_ extract 7 0) rdx) #x07)
(concat #b0000000000000000000000000 ((_ extract 6 0) rcx))
a!3))))
(let ((a!5 (ite (= ((_ extract 7 0) rdx) #x0a)
(concat #b0000000000000000000000 ((_ extract 9 0) rcx))
(ite (= ((_ extract 7 0) rdx) #x09)
(concat #b00000000000000000000000 ((_ extract 8 0) rcx))
a!4))))
(let ((a!6 (ite (= ((_ extract 7 0) rdx) #x0c)
(concat #x00000 ((_ extract 11 0) rcx))
(ite (= ((_ extract 7 0) rdx) #x0b)
(concat #b000000000000000000000 ((_ extract 10 0) rcx))
a!5))))
(let ((a!7 (ite (= ((_ extract 7 0) rdx) #x0e)
(concat #b000000000000000000 ((_ extract 13 0) rcx))
(ite (= ((_ extract 7 0) rdx) #x0d)
(concat #b0000000000000000000 ((_ extract 12 0) rcx))
a!6))))
(let ((a!8 (ite (= ((_ extract 7 0) rdx) #x10)
(concat #x0000 ((_ extract 15 0) rcx))
(ite (= ((_ extract 7 0) rdx) #x0f)
(concat #b00000000000000000 ((_ extract 14 0) rcx))
a!7))))
(let ((a!9 (ite (= ((_ extract 7 0) rdx) #x12)
(concat #b00000000000000 ((_ extract 17 0) rcx))
(ite (= ((_ extract 7 0) rdx) #x11)
(concat #b000000000000000 ((_ extract 16 0) rcx))
a!8))))
(let ((a!10 (ite (= ((_ extract 7 0) rdx) #x14)
(concat #x000 ((_ extract 19 0) rcx))
(ite (= ((_ extract 7 0) rdx) #x13)
(concat #b0000000000000 ((_ extract 18 0) rcx))
a!9))))
(let ((a!11 (ite (= ((_ extract 7 0) rdx) #x16)
(concat #b0000000000 ((_ extract 21 0) rcx))
(ite (= ((_ extract 7 0) rdx) #x15)
(concat #b00000000000 ((_ extract 20 0) rcx))
a!10))))
(let ((a!12 (ite (= ((_ extract 7 0) rdx) #x18)
(concat #x00 ((_ extract 23 0) rcx))
(ite (= ((_ extract 7 0) rdx) #x17)
(concat #b000000000 ((_ extract 22 0) rcx))
a!11))))
(let ((a!13 (ite (= ((_ extract 7 0) rdx) #x1a)
(concat #b000000 ((_ extract 25 0) rcx))
(ite (= ((_ extract 7 0) rdx) #x19)
(concat #b0000000 ((_ extract 24 0) rcx))
a!12))))
(let ((a!14 (ite (= ((_ extract 7 0) rdx) #x1c)
(concat #x0 ((_ extract 27 0) rcx))
(ite (= ((_ extract 7 0) rdx) #x1b)
(concat #b00000 ((_ extract 26 0) rcx))
a!13))))
(let ((a!15 (ite (= ((_ extract 7 0) rdx) #x1e)
(concat #b00 ((_ extract 29 0) rcx))
(ite (= ((_ extract 7 0) rdx) #x1d)
(concat #b000 ((_ extract 28 0) rcx))
a!14))))
(let ((a!16 (ite (bvult ((_ extract 7 0) rdx) #x20)
(ite (= ((_ extract 7 0) rdx) #x1f)
(concat #b0 ((_ extract 30 0) rcx))
a!15)
((_ extract 31 0) rcx))))
(= a!16 #x00000000)))))))))))))))))

(let ((a!1 (ite (= ((_ extract 7 0) rdx) #x02)
(concat #b000000000000000000000000000000 ((_ extract 1 0) rcx))
(ite (= ((_ extract 7 0) rdx) #x01)
(concat #b0000000000000000000000000000000
((_ extract 0 0) rcx))
#x00000000))))
(let ((a!2 (ite (= ((_ extract 7 0) rdx) #x04)
(concat #x0000000 ((_ extract 3 0) rcx))
(ite (= ((_ extract 7 0) rdx) #x03)
(concat #b00000000000000000000000000000
((_ extract 2 0) rcx))
a!1))))
(let ((a!3 (ite (= ((_ extract 7 0) rdx) #x06)
(concat #b00000000000000000000000000 ((_ extract 5 0) rcx))
(ite (= ((_ extract 7 0) rdx) #x05)
(concat #b000000000000000000000000000
((_ extract 4 0) rcx))
a!2))))
(let ((a!4 (ite (= ((_ extract 7 0) rdx) #x08)
(concat #x000000 ((_ extract 7 0) rcx))
(ite (= ((_ extract 7 0) rdx) #x07)
(concat #b0000000000000000000000000 ((_ extract 6 0) rcx))
a!3))))
(let ((a!5 (ite (= ((_ extract 7 0) rdx) #x0a)
(concat #b0000000000000000000000 ((_ extract 9 0) rcx))
(ite (= ((_ extract 7 0) rdx) #x09)
(concat #b00000000000000000000000 ((_ extract 8 0) rcx))
a!4))))
(let ((a!6 (ite (= ((_ extract 7 0) rdx) #x0c)
(concat #x00000 ((_ extract 11 0) rcx))
(ite (= ((_ extract 7 0) rdx) #x0b)
(concat #b000000000000000000000 ((_ extract 10 0) rcx))
a!5))))
(let ((a!7 (ite (= ((_ extract 7 0) rdx) #x0e)
(concat #b000000000000000000 ((_ extract 13 0) rcx))
(ite (= ((_ extract 7 0) rdx) #x0d)
(concat #b0000000000000000000 ((_ extract 12 0) rcx))
a!6))))
(let ((a!8 (ite (= ((_ extract 7 0) rdx) #x10)
(concat #x0000 ((_ extract 15 0) rcx))
(ite (= ((_ extract 7 0) rdx) #x0f)
(concat #b00000000000000000 ((_ extract 14 0) rcx))
a!7))))
(let ((a!9 (ite (= ((_ extract 7 0) rdx) #x12)
(concat #b00000000000000 ((_ extract 17 0) rcx))
(ite (= ((_ extract 7 0) rdx) #x11)
(concat #b000000000000000 ((_ extract 16 0) rcx))
a!8))))
(let ((a!10 (ite (= ((_ extract 7 0) rdx) #x14)
(concat #x000 ((_ extract 19 0) rcx))
(ite (= ((_ extract 7 0) rdx) #x13)
(concat #b0000000000000 ((_ extract 18 0) rcx))
a!9))))
(let ((a!11 (ite (= ((_ extract 7 0) rdx) #x16)
(concat #b0000000000 ((_ extract 21 0) rcx))
(ite (= ((_ extract 7 0) rdx) #x15)
(concat #b00000000000 ((_ extract 20 0) rcx))
a!10))))
(let ((a!12 (ite (= ((_ extract 7 0) rdx) #x18)
(concat #x00 ((_ extract 23 0) rcx))
(ite (= ((_ extract 7 0) rdx) #x17)
(concat #b000000000 ((_ extract 22 0) rcx))
a!11))))
(let ((a!13 (ite (= ((_ extract 7 0) rdx) #x1a)
(concat #b000000 ((_ extract 25 0) rcx))
(ite (= ((_ extract 7 0) rdx) #x19)
(concat #b0000000 ((_ extract 24 0) rcx))
a!12))))
(let ((a!14 (ite (= ((_ extract 7 0) rdx) #x1c)
(concat #x0 ((_ extract 27 0) rcx))
(ite (= ((_ extract 7 0) rdx) #x1b)
(concat #b00000 ((_ extract 26 0) rcx))
a!13))))
(let ((a!15 (ite (= ((_ extract 7 0) rdx) #x1e)
(concat #b00 ((_ extract 29 0) rcx))
(ite (= ((_ extract 7 0) rdx) #x1d)
(concat #b000 ((_ extract 28 0) rcx))
a!14))))
(let ((a!16 (ite (bvult ((_ extract 7 0) rdx) #x20)
(ite (= ((_ extract 7 0) rdx) #x1f)
(concat #b0 ((_ extract 30 0) rcx))
a!15)
((_ extract 31 0) rcx))))
(= a!16 #x00000000)))))))))))))))))
)))
(check-sat)
( pop )



